53 37 45 59 47 1 41 50 23 93 33 44 11 20 13 9 2 90 68 5 48 81 49 39 82 4 40 22 6 15 70 87 27 14 89 99 65 80 97 66 60 78 30 76 18 86 56 19 73 62 55 51 79 61 35 74 77 38 24 69 31 63 43 21 88 42 85 67 3 46 75 92 8 16 84 36 57 83 10 25 64 29 0 94 26 32 7 91 71 72 95 98 17 28 52 54 96 12 34 58 

